3 15
437 253 375 
0 59 2 35 21 12 39 40 6 75 84 85 40 2
1 71 15 80 49 96 92 54 4 1 29 4 85 1
2 17 81 17 51 26 22 94 51 87 47 20 91 1
3 89 50 65 4 42 51 30 16 31 17 83 50 2
4 54 99 31 49 99 100 8 97 62 90 59 96 3
5 70 72 78 19 87 73 76 50 65 89 91 23 3
6 98 8 55 34 3 61 51 43 91 16 85 81 3
7 96 62 37 1 77 39 2 9 31 92 90 67 3
8 35 92 96 66 48 33 5 33 76 87 72 66 3
9 79 53 40 7 8 54 89 11 76 65 54 100 3
10 40 54 32 1 17 39 52 83 50 28 82 3 1
11 88 82 60 92 25 3 30 74 99 79 27 80 1
12 8 23 68 65 29 16 56 99 1 6 33 79 2
13 63 95 3 33 52 80 37 60 77 37 38 61 2
14 76 87 48 14 13 48 93 96 66 21 67 3 2
